8
1 7
2 9
3 1
4 6
5 2
6 6
7 1
8 1
35
0 1 71
1 0 71
0 2 95
2 0 95
0 3 92
3 0 92
0 4 87
4 0 87
0 5 27
5 0 27
0 6 9
6 0 9
0 7 66
7 0 66
0 8 2
8 0 2
1 2 90
1 3 86
1 8 49
2 4 35
2 6 66
2 7 95
2 8 13
3 4 46
3 5 12
3 7 35
3 8 69
4 5 17
4 6 22
4 7 92
5 6 83
5 7 80
5 8 81
6 7 51
6 8 29